c FILE: aim-100-1_6-yes1-3.cnf
c
c SOURCE: Kazuo Iwama, Eiji Miyano (miyano@cscu.kyushu-u.ac.jp),
c          and Yuichi Asahiro
c
c DESCRIPTION: Artifical instances from generator by source.  Generators
c              and more information in sat/contributed/iwama.
c
c NOTE: Satisfiable
c
p cnf 20 30
1 -2 -3 0
-4 5 -6 0
-7 -8 9 0
10 -11 -12 0
-13 14 -15 0
-16 -17 18 0
19 -20 -1 0
-2 3 -4 0
-5 6 -7 0
-8 9 -10 0
-11 12 -13 0
-14 15 -16 0
-17 18 -19 0
-20 1 -2 0
3 -4 -5 0
-6 7 -8 0
-9 10 -11 0
-12 13 -14 0
-15 16 -17 0
-18 19 -20 0
1 -3 -5 0
-2 4 -6 0
-7 9 -11 0
-8 10 -12 0
-13 15 -17 0
-14 16 -18 0
-19 20 -1 0
2 -3 -4 0
-5 6 -7 0
-8 9 -10 0